Set parameter Threads to value 20
Gurobi Optimizer version 12.0.3 build v12.0.3rc0 (linux64 - "Ubuntu 22.04.5 LTS")

CPU model: AMD EPYC 7742 64-Core Processor, instruction set [SSE2|AVX|AVX2]
Thread count: 128 physical cores, 256 logical processors, using up to 20 threads

Non-default parameters:
Threads  20

Optimize a model with 79071 rows, 20464 columns and 231062 nonzeros
Model fingerprint: 0x760867f6
Variable types: 20434 continuous, 30 integer (0 binary)
Coefficient statistics:
  Matrix range     [1e+00, 4e+00]
  Objective range  [2e-03, 8e+00]
  Bounds range     [1e+00, 1e+00]
  RHS range        [1e+00, 1e+03]
Presolve removed 76052 rows and 19280 columns
Presolve time: 0.36s
Presolved: 3019 rows, 1184 columns, 8426 nonzeros
Variable types: 1144 continuous, 40 integer (40 binary)
Found heuristic solution: objective 12.3860045
Found heuristic solution: objective 12.5304740
Found heuristic solution: objective 12.7336343
Performing another presolve...
Presolve removed 865 rows and 507 columns
Presolve time: 0.04s

Root relaxation: objective 1.440632e+01, 555 iterations, 0.01 seconds (0.01 work units)

    Nodes    |    Current Node    |     Objective Bounds      |     Work
 Expl Unexpl |  Obj  Depth IntInf | Incumbent    BestBd   Gap | It/Node Time

     0     0   14.40632    0   21   12.73363   14.40632  13.1%     -    0s
     0     0   12.86682    0   10   12.73363   12.86682  1.05%     -    0s

Cutting planes:
  Gomory: 4
  Cover: 1
  MIR: 11
  Flow cover: 8
  RLT: 4

Explored 1 nodes (925 simplex iterations) in 0.51 seconds (0.58 work units)
Thread count was 20 (of 256 available processors)

Solution count 3: 12.7336 12.5305 12.386 

Optimal solution found (tolerance 1.00e-04)
Best objective 1.273363431151e+01, best bound 1.273363431151e+01, gap 0.0000%
Objective value: 12.733634311512416
lam[0,0] = 0.0
lam[0,1] = 0.5
lam[0,2] = 0.0
lam[0,3] = 0.0
lam[0,4] = 0.5
lam[0,5] = 0.0
lam[1,0] = 0.0
lam[1,1] = 0.5
lam[1,2] = 0.0
lam[1,3] = 0.0
lam[1,4] = 0.5
lam[1,5] = 0.0
tau[0,0,1] = -0.0
tau[0,0,L0] = -0.0
tau[0,0,L1] = 1.0
tau[0,1,1] = -0.0
tau[0,1,L0] = -0.0
tau[0,1,L1] = 1.0
tau[0,2,1] = -0.0
tau[0,2,L0] = -0.0
tau[0,2,L1] = 1.0
tau[0,3,1] = -0.0
tau[0,3,L0] = -0.0
tau[0,3,L1] = -0.0
tau[0,4,1] = -0.0
tau[0,4,L0] = -0.0
tau[0,4,L1] = -0.0
tau[0,5,1] = -0.0
tau[0,5,L0] = -0.0
tau[0,5,L1] = -0.0
tau[1,0,L0] = -0.0
tau[1,0,L1] = 1.0
tau[1,1,L0] = -0.0
tau[1,1,L1] = 1.0
tau[1,2,L0] = -0.0
tau[1,2,L1] = 1.0
tau[1,3,L0] = -0.0
tau[1,3,L1] = -0.0
tau[1,4,L0] = -0.0
tau[1,4,L1] = -0.0
tau[1,5,L0] = -0.0
tau[1,5,L1] = -0.0
m[0,0] = 0.0
m[0,1] = 1.0
m[0,2] = 1.0
m[0,3] = 1.0
m[0,4] = 1.0
m[0,5] = 1.0
m[0,6] = 1.0
m[0,7] = 1.0
m[0,8] = 1.0
m[0,9] = 1.0
m[0,10] = 1.0
m[0,11] = 1.0
m[0,12] = 1.0
m[0,13] = 1.0
m[0,14] = 1.0
m[0,15] = 1.0
m[0,16] = 1.0
m[0,17] = 1.0
m[0,18] = 1.0
m[0,19] = 0.0
m[0,20] = 1.0
m[0,21] = 0.0
m[0,22] = 1.0
m[0,23] = 1.0
m[0,24] = 0.0
m[0,25] = 1.0
m[0,26] = 0.0
m[0,27] = 0.0
m[0,28] = 0.0
m[0,29] = 1.0
m[0,30] = 1.0
m[0,31] = 1.0
m[0,32] = 0.0
m[0,33] = 0.0
m[0,34] = 1.0
m[0,35] = 0.0
m[0,36] = 0.0
m[0,37] = 1.0
m[0,38] = 1.0
m[0,39] = 1.0
m[0,40] = 1.0
m[0,41] = 1.0
m[0,42] = 1.0
m[0,43] = 1.0
m[0,44] = 1.0
m[0,45] = 1.0
m[0,46] = 1.0
m[0,47] = 0.0
m[0,48] = 1.0
m[0,49] = 0.0
m[0,50] = 1.0
m[0,51] = 0.0
m[0,52] = 0.0
m[0,53] = 0.0
m[0,54] = 1.0
m[0,55] = 1.0
m[0,56] = 1.0
m[0,57] = 1.0
m[0,58] = 1.0
m[0,59] = 1.0
m[0,60] = 1.0
m[0,61] = 1.0
m[0,62] = 0.0
m[0,63] = 1.0
m[0,64] = 1.0
m[0,65] = 1.0
m[0,66] = 1.0
m[0,67] = 1.0
m[0,68] = 0.0
m[0,69] = 1.0
m[0,70] = 1.0
m[0,71] = 0.0
m[0,72] = 1.0
m[0,73] = 1.0
m[0,74] = 1.0
m[0,75] = 1.0
m[0,76] = 1.0
m[0,77] = 0.0
m[0,78] = 1.0
m[0,79] = 1.0
m[0,80] = 1.0
m[0,81] = 1.0
m[0,82] = 0.0
m[0,83] = 0.0
m[0,84] = 1.0
m[0,85] = 1.0
m[0,86] = 1.0
m[0,87] = 1.0
m[0,88] = 1.0
m[0,89] = 1.0
m[0,90] = 1.0
m[0,91] = 1.0
m[0,92] = 1.0
m[0,93] = 0.0
m[0,94] = 1.0
m[0,95] = -0.0
m[0,96] = 1.0
m[0,97] = 1.0
m[0,98] = 0.0
m[0,99] = 1.0
m[0,100] = 1.0
m[0,101] = 1.0
m[0,102] = 1.0
m[0,103] = 1.0
m[0,104] = 1.0
m[0,105] = 1.0
m[0,106] = 1.0
m[0,107] = 1.0
m[0,108] = 1.0
m[0,109] = 0.0
m[0,110] = 1.0
m[0,111] = 1.0
m[0,112] = 0.0
m[0,113] = 1.0
m[0,114] = 1.0
m[0,115] = 0.0
m[0,116] = 1.0
m[0,117] = 0.0
m[0,118] = 0.0
m[0,119] = 0.0
m[0,120] = 0.0
m[0,121] = 1.0
m[0,122] = 1.0
m[0,123] = 1.0
m[0,124] = 1.0
m[0,125] = 1.0
m[0,126] = 0.0
m[0,127] = 1.0
m[0,128] = 1.0
m[0,129] = 1.0
m[0,130] = 0.0
m[0,131] = 1.0
m[0,132] = 0.0
m[0,133] = 1.0
m[0,134] = 1.0
m[0,135] = 1.0
m[0,136] = 1.0
m[0,137] = 0.0
m[0,138] = 1.0
m[0,139] = 1.0
m[0,140] = 1.0
m[0,141] = 1.0
m[0,142] = 1.0
m[0,143] = 1.0
m[0,144] = 1.0
m[0,145] = 1.0
m[0,146] = 1.0
m[0,147] = 1.0
m[0,148] = 0.0
m[0,149] = 1.0
m[0,150] = 1.0
m[0,151] = 1.0
m[0,152] = 1.0
m[0,153] = 1.0
m[0,154] = 1.0
m[0,155] = 1.0
m[0,156] = 1.0
m[0,157] = 0.0
m[0,158] = 0.0
m[0,159] = 1.0
m[0,160] = 1.0
m[0,161] = 1.0
m[0,162] = 1.0
m[0,163] = 1.0
m[0,164] = 0.0
m[0,165] = 1.0
m[0,166] = 1.0
m[0,167] = 1.0
m[0,168] = 0.0
m[0,169] = 1.0
m[0,170] = 1.0
m[0,171] = 1.0
m[0,172] = 1.0
m[0,173] = 1.0
m[0,174] = 1.0
m[0,175] = 1.0
m[0,176] = 0.0
m[0,177] = 0.0
m[0,178] = 1.0
m[0,179] = 1.0
m[0,180] = 1.0
m[0,181] = 1.0
m[0,182] = 1.0
m[0,183] = 1.0
m[0,184] = 1.0
m[0,185] = 1.0
m[0,186] = 1.0
m[0,187] = 1.0
m[0,188] = 1.0
m[0,189] = 1.0
m[0,190] = 1.0
m[0,191] = 1.0
m[0,192] = 0.0
m[0,193] = 0.0
m[0,194] = 1.0
m[0,195] = 1.0
m[0,196] = 1.0
m[0,197] = 1.0
m[0,198] = 1.0
m[0,199] = 1.0
m[0,200] = 1.0
m[0,201] = 1.0
m[0,202] = 1.0
m[0,203] = 1.0
m[0,204] = 0.0
m[0,205] = 0.0
m[0,206] = 1.0
m[0,207] = 0.0
m[0,208] = 1.0
m[0,209] = 1.0
m[0,210] = 1.0
m[0,211] = 0.0
m[0,212] = 1.0
m[0,213] = 1.0
m[0,214] = 1.0
m[0,215] = 0.0
m[0,216] = 1.0
m[0,217] = 0.0
m[0,218] = 1.0
m[0,219] = 1.0
m[0,220] = 1.0
m[0,221] = 1.0
m[0,222] = 1.0
m[0,223] = 1.0
m[0,224] = 0.0
m[0,225] = 0.0
m[0,226] = 1.0
m[0,227] = 1.0
m[0,228] = 1.0
m[0,229] = 1.0
m[0,230] = 1.0
m[0,231] = 1.0
m[0,232] = 1.0
m[0,233] = 1.0
m[0,234] = 1.0
m[0,235] = 1.0
m[0,236] = 1.0
m[0,237] = 1.0
m[0,238] = 1.0
m[0,239] = 0.0
m[0,240] = 1.0
m[0,241] = 0.0
m[0,242] = 0.0
m[0,243] = 1.0
m[0,244] = 1.0
m[0,245] = 1.0
m[0,246] = 1.0
m[0,247] = 1.0
m[0,248] = 1.0
m[0,249] = 0.0
m[0,250] = 1.0
m[0,251] = 0.0
m[0,252] = 0.0
m[0,253] = 0.0
m[0,254] = 1.0
m[0,255] = 0.0
m[0,256] = 1.0
m[0,257] = 1.0
m[0,258] = 1.0
m[0,259] = 1.0
m[0,260] = 1.0
m[0,261] = 0.0
m[0,262] = 1.0
m[0,263] = 1.0
m[0,264] = 1.0
m[0,265] = 0.0
m[0,266] = 1.0
m[0,267] = 1.0
m[0,268] = 0.0
m[0,269] = 1.0
m[0,270] = 1.0
m[0,271] = 0.0
m[0,272] = 1.0
m[0,273] = 1.0
m[0,274] = 1.0
m[0,275] = -0.0
m[0,276] = 0.0
m[0,277] = 0.0
m[0,278] = 1.0
m[0,279] = 1.0
m[0,280] = 0.0
m[0,281] = 1.0
m[0,282] = 1.0
m[0,283] = 1.0
m[0,284] = 0.0
m[0,285] = 0.0
m[0,286] = 0.0
m[0,287] = 1.0
m[0,288] = 1.0
m[0,289] = 1.0
m[0,290] = 0.0
m[0,291] = 1.0
m[0,292] = 0.0
m[0,293] = 1.0
m[0,294] = 1.0
m[0,295] = 1.0
m[0,296] = 1.0
m[0,297] = 1.0
m[0,298] = 1.0
m[0,299] = 0.0
m[0,300] = 1.0
m[0,301] = 1.0
m[0,302] = 1.0
m[0,303] = 0.0
m[0,304] = 0.0
m[0,305] = 1.0
m[0,306] = 1.0
m[0,307] = 1.0
m[0,308] = 1.0
m[0,309] = 1.0
m[0,310] = 0.0
m[0,311] = 0.0
m[0,312] = 1.0
m[0,313] = 1.0
m[0,314] = 1.0
m[0,315] = 1.0
m[0,316] = 1.0
m[0,317] = 1.0
m[0,318] = 0.0
m[0,319] = 0.0
m[0,320] = 1.0
m[0,321] = 1.0
m[0,322] = 0.0
m[0,323] = 1.0
m[0,324] = 0.0
m[0,325] = 1.0
m[0,326] = 1.0
m[0,327] = 0.0
m[0,328] = 1.0
m[0,329] = 0.0
m[0,330] = 1.0
m[0,331] = 1.0
m[0,332] = 1.0
m[0,333] = 1.0
m[0,334] = 0.0
m[0,335] = 1.0
m[0,336] = 1.0
m[0,337] = 0.0
m[0,338] = 0.0
m[0,339] = 1.0
m[0,340] = 0.0
m[0,341] = 1.0
m[0,342] = 1.0
m[0,343] = 1.0
m[0,344] = 1.0
m[0,345] = 1.0
m[0,346] = 0.0
m[0,347] = 1.0
m[0,348] = 1.0
m[0,349] = 1.0
m[0,350] = 1.0
m[0,351] = 1.0
m[0,352] = 1.0
m[0,353] = 1.0
m[0,354] = 1.0
m[0,355] = 1.0
m[0,356] = 0.0
m[0,357] = 1.0
m[0,358] = 1.0
m[0,359] = 1.0
m[0,360] = 0.0
m[0,361] = 1.0
m[0,362] = 1.0
m[0,363] = 0.0
m[0,364] = 1.0
m[0,365] = 0.0
m[0,366] = 1.0
m[0,367] = 1.0
m[0,368] = 0.0
m[0,369] = 1.0
m[0,370] = 1.0
m[0,371] = 1.0
m[0,372] = 0.0
m[0,373] = 1.0
m[0,374] = 1.0
m[0,375] = 1.0
m[0,376] = 0.0
m[0,377] = 1.0
m[0,378] = 1.0
m[0,379] = 1.0
m[0,380] = 0.0
m[0,381] = 1.0
m[0,382] = 1.0
m[0,383] = 0.0
m[0,384] = 1.0
m[0,385] = 0.0
m[0,386] = 0.0
m[0,387] = 1.0
m[0,388] = 1.0
m[0,389] = 1.0
m[0,390] = 0.0
m[0,391] = 1.0
m[0,392] = 1.0
m[0,393] = 1.0
m[0,394] = 1.0
m[0,395] = 1.0
m[0,396] = 1.0
m[0,397] = 1.0
m[0,398] = 1.0
m[0,399] = 1.0
m[0,400] = 1.0
m[0,401] = 0.0
m[0,402] = 0.0
m[0,403] = 1.0
m[0,404] = 1.0
m[0,405] = 1.0
m[0,406] = 0.0
m[0,407] = 0.0
m[0,408] = 1.0
m[0,409] = 0.0
m[0,410] = 1.0
m[0,411] = 1.0
m[0,412] = 0.0
m[0,413] = 0.0
m[0,414] = 1.0
m[0,415] = 1.0
m[0,416] = 0.0
m[0,417] = 1.0
m[0,418] = 1.0
m[0,419] = 0.0
m[0,420] = 1.0
m[0,421] = 1.0
m[0,422] = 1.0
m[0,423] = 1.0
m[0,424] = 1.0
m[0,425] = 1.0
m[0,426] = 1.0
m[0,427] = 1.0
m[0,428] = 0.0
m[0,429] = 0.0
m[0,430] = 0.0
m[0,431] = 1.0
m[0,432] = 1.0
m[0,433] = 1.0
m[0,434] = 0.0
m[0,435] = 1.0
m[0,436] = 1.0
m[0,437] = 1.0
m[0,438] = 1.0
m[0,439] = 0.0
m[0,440] = 0.0
m[0,441] = 1.0
m[0,442] = 0.0
u[0] = 1.0
u[1] = 0.0
o_u[0,0] = 0.0
o_u[0,1] = 0.5
o_u[0,2] = 0.0
o_u[0,3] = 0.0
o_u[0,4] = 0.5
o_u[0,5] = 0.0
o_u[1,0] = 0.0
o_u[1,1] = 0.0
o_u[1,2] = 0.0
o_u[1,3] = 0.0
o_u[1,4] = 0.0
o_u[1,5] = 0.0
------------------------------------------------------------------------
------------------------------------------------------------------------
Saved hierarchical tree visualization to milp_tree_levels.png
THIS IS THE INITIAL CORRECTNESS 0.7336343115124153
THIS IS THE INITIAL EXPLAINABILITY 12.0
Inside find_pareto_solution_more_e
----------------------------------
THE CURRENT CORRECTNESS IS: 0.7336343115124153, AND THE CURRENT EXPLAINABILITY IS: 12.0
Gurobi Optimizer version 12.0.3 build v12.0.3rc0 (linux64 - "Ubuntu 22.04.5 LTS")

CPU model: AMD EPYC 7742 64-Core Processor, instruction set [SSE2|AVX|AVX2]
Thread count: 128 physical cores, 256 logical processors, using up to 20 threads

Non-default parameters:
Threads  20

Optimize a model with 79073 rows, 20464 columns and 231519 nonzeros
Model fingerprint: 0xc9253f7d
Variable types: 20434 continuous, 30 integer (0 binary)
Coefficient statistics:
  Matrix range     [1e+00, 8e+00]
  Objective range  [2e-03, 8e+00]
  Bounds range     [1e+00, 1e+00]
  RHS range        [1e+00, 1e+03]

MIP start from previous solve did not produce a new incumbent solution
MIP start from previous solve violates constraint R79071 by 1.000000000

Presolve removed 66845 rows and 15061 columns
Presolve time: 0.22s

Explored 0 nodes (0 simplex iterations) in 0.24 seconds (0.30 work units)
Thread count was 1 (of 256 available processors)

Solution count 0
No other solutions better than -1e+100

Model is infeasible
Best objective -, best bound -, gap -
[INFO] Model became infeasible under the new cuts.
End of find_pareto_solution_more_e 2 @@@@@@@@@@@
Inside find_pareto_solution_more_c
End of find_pareto_solution_more_c 3 |||||||||||||||||
[0.7336343115124153, 4.0]
Printing original list
[0.7336343115124153, 4.0]
Updating explainability %%%%%% from 4.0 to 12.0
Printing list after change
[0.7336343115124153, 12.0]

 Total time taken: 6.310412645339966 seconds